(set-logic HORN)
(set-info :source |
    Benchmark: C_VC
    Output by Princess (http://www.philipp.ruemmer.org/princess.shtml)
|)
(set-info :status unknown)
(declare-fun inv_main11 (Int Int Int Int) Bool)
(declare-fun inv_main4 (Int Int Int) Bool)
(declare-fun inv_main9 (Int Int Int Int) Bool)
(assert (inv_main4 0 0 0 ) )
(assert (forall ((var0 Int)) (forall ((var1 Int)) (forall ((var2 Int)) (forall ((var3 Int)) (or (not (inv_main11 var2 var3 var0 var1 ) ) (inv_main11 (+ var2 1 ) var3 var0 var1 ) ) ) ) ) ) )
(assert true )
(assert (forall ((var0 Int)) (forall ((var1 Int)) (forall ((var2 Int)) (forall ((var3 Int)) (or (not (and (inv_main4 var2 var3 var1 ) (<= 0 (+ var0 (- 1) ) ) ) ) (inv_main11 0 var3 var1 var0 ) ) ) ) ) ) )
(assert true )
(assert (forall ((var0 Int)) (forall ((var1 Int)) (forall ((var2 Int)) (forall ((var3 Int)) (not (and (inv_main11 var2 var3 var0 var1 ) (not (= var3 0 ) ) ) ) ) ) ) ) )
(assert (forall ((var0 Int)) (forall ((var1 Int)) (forall ((var2 Int)) (forall ((var3 Int)) (not (and (inv_main9 var2 var3 var0 var1 ) (= var3 0 ) ) ) ) ) ) ) )
(check-sat)
